
Gurobi 11.0.3 (linux64) logging started Sat Nov 23 09:36:45 2024

Set parameter LogFile to value "/home/yihong/Coding/OR_SUC/SUC_results_bigM100000_thread4/case24_ieee_rts_theta0.1_epsilon0.05_gurobi_seed110000_num_gen100_N_WDR50_load_scaling_factor1_proposed_T24quadra_cost.txt"
Set parameter TimeLimit to value 3600
Gurobi Optimizer version 11.0.3 build v11.0.3rc0 (linux64 - "Ubuntu 20.04.6 LTS")

CPU model: AMD EPYC 7532 32-Core Processor, instruction set [SSE2|AVX|AVX2]
Thread count: 64 physical cores, 128 logical processors, using up to 4 threads

Optimize a model with 51892 rows, 29811 columns and 708694 nonzeros
Model fingerprint: 0xc8cf8f36
Model has 2400 quadratic constraints
Variable types: 27411 continuous, 2400 integer (2400 binary)
Coefficient statistics:
  Matrix range     [3e-04, 3e+03]
  QMatrix range    [2e-03, 8e-03]
  QLMatrix range   [4e-02, 6e+01]
  Objective range  [1e+00, 1e+00]
  Bounds range     [1e+00, 1e+00]
  RHS range        [1e+00, 9e+03]
Presolve removed 42076 rows and 12916 columns
Presolve time: 0.26s
Presolved: 9816 rows, 16895 columns, 61263 nonzeros
Presolved model has 2400 quadratic constraint(s)
Variable types: 14495 continuous, 2400 integer (2400 binary)

Root relaxation: objective 3.395968e+04, 7580 iterations, 0.19 seconds (0.26 work units)

    Nodes    |    Current Node    |     Objective Bounds      |     Work
 Expl Unexpl |  Obj  Depth IntInf | Incumbent    BestBd   Gap | It/Node Time

     0     0 33959.6805    0   24          - 33959.6805      -     -    0s
     0     0 336250.596    0  733          - 336250.596      -     -    1s
     0     0 385856.289    0  656          - 385856.289      -     -    1s
     0     0 631767.560    0  670          - 631767.560      -     -    1s
     0     0 631796.585    0  497          - 631796.585      -     -    1s
     0     0 632062.894    0  343          - 632062.894      -     -    1s
     0     0 632063.547    0  343          - 632063.547      -     -    1s
     0     0 632065.027    0  343          - 632065.027      -     -    1s
     0     0 632065.430    0  343          - 632065.430      -     -    1s
     0     2 632067.404    0  343          - 632067.404      -     -    3s
H  301   381                    632241.62392 632074.959  0.03%  42.9    4s
*  301   381             148    632241.62392 632074.959  0.03%  42.9    4s

Cutting planes:
  Implied bound: 334
  MIR: 72
  Flow cover: 125

Explored 417 nodes (37690 simplex iterations) in 5.50 seconds (6.49 work units)
Thread count was 4 (of 128 available processors)

Solution count 2: 632242 632242 

Optimal solution found (tolerance 1.00e-03)
Warning: max constraint violation (2.3518e-07) exceeds tolerance
Best objective 6.322416239211e+05, best bound 6.320749585589e+05, gap 0.0264%
